80
0
9
13
37
18
16
30
36
0
14
0
34
47
0
79
52
33
21
21
24
15
27
22
47
12
55
30
0
58
28
59
46
20
14
49
28
54
23
93
61
27
29
0
17
20
51
45
37
33
43
0
24
54
78
44
28
28
0
0
9
53
41
25
15
54
10
45
80
24
19
33
0
28
9
76
30
25
64
47
34
0
52
34
54
38
33
0
80
24
27
17
22
92
27
10
68
13
25
53
